c Reduced graph for 3-FullIns_3_2 generated by Cyril Grelier
p edge 23 64
e 1 7
e 1 8
e 1 9
e 1 10
e 1 11
e 1 12
e 1 15
e 1 16
e 1 17
e 1 20
e 1 21
e 1 22
e 1 23
e 2 3
e 2 4
e 2 5
e 2 6
e 2 8
e 2 9
e 2 10
e 2 11
e 2 13
e 2 14
e 2 20
e 2 21
e 3 4
e 3 5
e 3 6
e 3 7
e 3 9
e 3 10
e 3 11
e 4 5
e 4 6
e 4 7
e 4 8
e 4 10
e 4 11
e 5 6
e 5 7
e 5 8
e 5 9
e 5 11
e 6 7
e 6 8
e 6 9
e 6 10
e 7 13
e 7 14
e 12 15
e 12 16
e 12 17
e 13 19
e 13 23
e 14 18
e 14 22
e 15 16
e 15 17
e 16 17
e 18 19
e 18 21
e 18 23
e 19 20
e 19 22
